NAME : portcgen-30-7
COMMENT : portcgen N=30, seed=7
TYPE : TSP
DIMENSION : 30
EDGE_WEIGHT_TYPE : EUC_2D
NODE_COORD_SECTION
1 116586 -164890
2 -49529 295589
3 142792 -54952
4 -219238 -231209
5 -308974 78713
6 -15850 -154590
7 -353620 -194391
8 169564 170163
9 -9183 -205715
10 708 -33199
11 117238 -21592
12 20735 -285171
13 -442551 146867
14 -269849 182440
15 343015 252539
16 -84288 112153
17 -63093 -220540
18 -29204 -196849
19 -364323 -91668
20 253052 -129128
21 51083 308982
22 -53265 -203025
23 130881 160370
24 19843 -143048
25 -155953 -17287
26 -4570 -146810
27 -335579 -149119
28 -48135 -39346
29 252021 215467
30 36974 213185
